NAME : portgen-17-17
COMMENT : portgen N=17, seed=17
TYPE : TSP
DIMENSION : 17
EDGE_WEIGHT_TYPE : EUC_2D
NODE_COORD_SECTION
1 478728 448080
2 604410 738692
3 6861 233573
4 207567 198684
5 713435 598186
6 659680 935671
7 383731 809869
8 340904 620802
9 719704 114802
10 655004 477098
11 785658 542419
12 602385 944470
13 616435 417584
14 272565 782171
15 722674 791913
16 158804 501225
17 958974 784155
